Route #1: 35 1 32
Route #2: 44 28 21 23
Route #3: 2 27
Route #4: 48 37 10 31 26 7 19 20 50 13
Route #5: 6 8 36
Route #6: 17 49 39 4
Route #7: 43 45 18 5 33 38
Route #8: 34 9 3 14 16 46 42 25
Route #9: 11 40 41 29 24
Route #10: 15 47 12 22 30
Cost 8110642.000000